(set-option :produce-models true)
(set-option :opt.priority box)

(declare-const A Int)
(define-const B Int 0)
(declare-const C Int)
(declare-const D Int)
(declare-const E Int)
(declare-const F Int)
(declare-const G Int)
(declare-const H Int)

(assert (or (= A (+ B 4)) (= A (+ D 2))))
(assert (or (= C (+ B 4)) (= C (+ E 7))))
(assert (or (= D (+ A 2)) (= D (+ E 3)) (= D (+ F 5))))
(assert (or (= E (+ B 6)) (= E (+ C 7)) (= E (+ D 3)) (= E (+ H 8))))
(assert (or (= F (+ D 5)) (= F (+ G 9))))
(assert (or (= G (+ F 9)) (= G (+ H 3))))
(assert (or (= H (+ G 3)) (= H (+ E 8))))

(assert (>= A 0))
(assert (>= B 0))
(assert (>= C 0))
(assert (>= D 0))
(assert (>= E 0))
(assert (>= F 0))
(assert (>= G 0))
(assert (>= H 0))

(minimize G)

(check-sat)
(get-objectives)
(get-model)
(exit)